# AMPL MODEL: ./res/solid.ampl

# Timestamp: 11 February 2025, 20:50:59 PM

param MAXWORK := 32;

param:
TNAME: TWORK :=
'alpha.f' 240
'alpha.m' 1800
'alpha.pf' 20
'alpha.pm' 180
'alpha.sf' 20
'alpha.sm' 40
'beta.f' 120
'beta.m' 2600
'beta.pf' 20
'beta.pm' 260
'beta.sf' 20
'beta.sm' 40
'charlie.f' 400
'charlie.m' 3200
'charlie.pf' 40
'charlie.pm' 320
'charlie.sf' 20
'charlie.sm' 60
'delta.f' 80
'delta.m' 880
'delta.pf' 20
'delta.pm' 100
'delta.sf' 20
'delta.sm' 20
'echo.f' 100
'echo.m' 1000
'echo.pf' 20
'echo.pm' 80
'echo.sf' 32
'echo.sm' 20
'foxtrot.f' 100
'foxtrot.m' 600
'foxtrot.pf' 20
'foxtrot.pm' 80
'foxtrot.sf' 32
'foxtrot.sm' 32
'golf.f' 120
'golf.m' 1400
'golf.pf' 40
'golf.pm' 160
'golf.sf' 32
'golf.sm' 40
'hotel.f' 280
'hotel.m' 3000
'hotel.pf' 40
'hotel.pm' 320
'hotel.sf' 20
'hotel.sm' 60
'india.f' 800
'india.m' 4400
'india.pf' 100
'india.pm' 520
'india.sf' 48
'india.sm' 120
'juliet.e' 40
'juliet.f' 140
'juliet.m' 1800
'juliet.pe' 40
'juliet.pf' 20
'juliet.pm' 200
'juliet.se' 40
'juliet.sf' 20
'juliet.sm' 40
'kilo.e' 80
'kilo.f' 160
'kilo.m' 2200
'kilo.pe' 40
'kilo.pf' 20
'kilo.pm' 200
'kilo.se' 60
'kilo.sf' 20
'kilo.sm' 40
'lima.e' 120
'lima.f' 480
'lima.m' 4200
'lima.pe' 100
'lima.pf' 80
'lima.pm' 400
'lima.se' 144
'lima.sf' 20
'lima.sm' 40
'mike.e' 40
'mike.f' 240
'mike.m' 1800
'mike.pe' 40
'mike.pf' 20
'mike.pm' 200
'mike.se' 60
'mike.sf' 20
'mike.sm' 40
'november.e' 40
'november.f' 120
'november.m' 2200
'november.pe' 40
'november.pf' 20
'november.pm' 220
'november.se' 40
'november.sf' 20
'november.sm' 40
'oscar.e' 60
'oscar.f' 160
'oscar.m' 2400
'oscar.pe' 60
'oscar.pf' 40
'oscar.pm' 280
'oscar.se' 40
'oscar.sf' 32
'oscar.sm' 40;

set TSCOPE['alpha.f'] :=
93 94 95 98 99 100 101 102 105 106 107 108 109 112 113 114 115 116 119 120 121 123
;

set TSCOPE['alpha.m'] :=
3 4 7 8 9 10 11 14 15 16 17 18 21 22 23 24 25 28 29 30 31 32 35 36 37 38 39 42 43 44 45 46 49 50 51 52 53 56 57 58 59 60 63 64 65 66 67 70 71 72
73 74 77 78 79 80 81 84 85 86 87 88 91 92
;

set TSCOPE['alpha.pf'] :=
93 94 95 98 99 100 101 102 105 106 107 108 109 112 113 114 115 116 119 120 121 123
;

set TSCOPE['alpha.pm'] :=
3 4 7 8 9 10 11 14 15 16 17 18 21 22 23 24 25 28 29 30 31 32 35 36 37 38 39 42 43 44 45 46 49 50 51 52 53 56 57 58 59 60 63 64 65 66 67 70 71 72
73 74 77 78 79 80 81 84 85 86 87 88 91 92
;

set TSCOPE['alpha.sf'] :=
93 94 95 98 99 100 101 102 105 106 107 108 109 112 113 114 115 116 119 120 121 123
;

set TSCOPE['alpha.sm'] :=
3 4 7 8 9 10 11 14 15 16 17 18 21 22 23 24 25 28 29 30 31 32 35 36 37 38 39 42 43 44 45 46 49 50 51 52 53 56 57 58 59 60 63 64 65 66 67 70 71 72
73 74 77 78 79 80 81 84 85 86 87 88 91 92
;

set TSCOPE['beta.f'] :=
175 176 177 178 179 182 183 184 185 186 189 190 191 192 193 196 197 198 199 200 203 204 205 206 207 210 211 212 213 214 217 218
;

set TSCOPE['beta.m'] :=
3 4 7 8 9 10 11 14 15 16 17 18 21 22 23 24 25 28 29 30 31 32 35 36 37 38 39 42 43 44 45 46 49 50 51 52 53 56 57 58 59 60 63 64 65 66 67 70 71 72
73 74 77 78 79 80 81 84 85 86 87 88 91 92 93 94 95 98 99 100 101 102 105 106 107 108 109 112 113 114 115 116 119 120 121 123 126 127 128 129 130 133 134 135 136 137 140 141 142 143
144 147 148 149 150 151 154 155 156 157 158 161 162 163 164 165 168 169 170 171 172
;

set TSCOPE['beta.pf'] :=
175 176 177 178 179 182 183 184 185 186 189 190 191 192 193 196 197 198 199 200 203 204 205 206 207 210 211 212 213 214 217 218
;

set TSCOPE['beta.pm'] :=
3 4 7 8 9 10 11 14 15 16 17 18 21 22 23 24 25 28 29 30 31 32 35 36 37 38 39 42 43 44 45 46 49 50 51 52 53 56 57 58 59 60 63 64 65 66 67 70 71 72
73 74 77 78 79 80 81 84 85 86 87 88 91 92 93 94 95 98 99 100 101 102 105 106 107 108 109 112 113 114 115 116 119 120 121 123 126 127 128 129 130 133 134 135 136 137 140 141 142 143
144 147 148 149 150 151 154 155 156 157 158 161 162 163 164 165 168 169 170 171 172
;

set TSCOPE['beta.sf'] :=
175 176 177 178 179 182 183 184 185 186 189 190 191 192 193 196 197 198 199 200 203 204 205 206 207 210 211 212 213 214 217 218
;

set TSCOPE['beta.sm'] :=
3 4 7 8 9 10 11 14 15 16 17 18 21 22 23 24 25 28 29 30 31 32 35 36 37 38 39 42 43 44 45 46 49 50 51 52 53 56 57 58 59 60 63 64 65 66 67 70 71 72
73 74 77 78 79 80 81 84 85 86 87 88 91 92 93 94 95 98 99 100 101 102 105 106 107 108 109 112 113 114 115 116 119 120 121 123 126 127 128 129 130 133 134 135 136 137 140 141 142 143
144 147 148 149 150 151 154 155 156 157 158 161 162 163 164 165 168 169 170 171 172
;

set TSCOPE['charlie.f'] :=
158 161 162 163 164 165 168 169 170 171 172 175 176 177 178 179 182 183 184 185 186
;

set TSCOPE['charlie.m'] :=
3 4 7 8 9 10 11 14 15 16 17 18 21 22 23 24 25 28 29 30 31 32 35 36 37 38 39 42 43 44 45 46 49 50 51 52 53 56 57 58 59 60 63 64 65 66 67 70 71 72
73 74 77 78 79 80 81 84 85 86 87 88 91 92 93 94 95 98 99 100 101 102 105 106 107 108 109 112 113 114 115 116 119 120 121 123 126 127 128 129 130 133 134 135 136 137 140 141 142 143
144 147 148 149 150 151 154 155 156 157
;

set TSCOPE['charlie.pf'] :=
158 161 162 163 164 165 168 169 170 171 172 175 176 177 178 179 182 183 184 185 186
;

set TSCOPE['charlie.pm'] :=
3 4 7 8 9 10 11 14 15 16 17 18 21 22 23 24 25 28 29 30 31 32 35 36 37 38 39 42 43 44 45 46 49 50 51 52 53 56 57 58 59 60 63 64 65 66 67 70 71 72
73 74 77 78 79 80 81 84 85 86 87 88 91 92 93 94 95 98 99 100 101 102 105 106 107 108 109 112 113 114 115 116 119 120 121 123 126 127 128 129 130 133 134 135 136 137 140 141 142 143
144 147 148 149 150 151 154 155 156 157
;

set TSCOPE['charlie.sf'] :=
158 161 162 163 164 165 168 169 170 171 172 175 176 177 178 179 182 183 184 185 186
;

set TSCOPE['charlie.sm'] :=
3 4 7 8 9 10 11 14 15 16 17 18 21 22 23 24 25 28 29 30 31 32 35 36 37 38 39 42 43 44 45 46 49 50 51 52 53 56 57 58 59 60 63 64 65 66 67 70 71 72
73 74 77 78 79 80 81 84 85 86 87 88 91 92 93 94 95 98 99 100 101 102 105 106 107 108 109 112 113 114 115 116 119 120 121 123 126 127 128 129 130 133 134 135 136 137 140 141 142 143
144 147 148 149 150 151 154 155 156 157
;

set TSCOPE['delta.f'] :=
58 59 60 63 64 65 66 67 70 71 72 73 74 77 78 79 80 81 84 85 86 87 88 91 92 93 94 95 98 99 100 101 102
;

set TSCOPE['delta.m'] :=
3 4 7 8 9 10 11 14 15 16 17 18 21 22 23 24 25 28 29 30 31 32 35 36 37 38 39 42 43 44 45 46 49 50 51 52 53 56 57
;

set TSCOPE['delta.pf'] :=
58 59 60 63 64 65 66 67 70 71 72 73 74 77 78 79 80 81 84 85 86 87 88 91 92 93 94 95 98 99 100 101 102
;

set TSCOPE['delta.pm'] :=
3 4 7 8 9 10 11 14 15 16 17 18 21 22 23 24 25 28 29 30 31 32 35 36 37 38 39 42 43 44 45 46 49 50 51 52 53 56 57
;

set TSCOPE['delta.sf'] :=
58 59 60 63 64 65 66 67 70 71 72 73 74 77 78 79 80 81 84 85 86 87 88 91 92 93 94 95 98 99 100 101 102
;

set TSCOPE['delta.sm'] :=
3 4 7 8 9 10 11 14 15 16 17 18 21 22 23 24 25 28 29 30 31 32 35 36 37 38 39 42 43 44 45 46 49 50 51 52 53 56 57
;

set TSCOPE['echo.f'] :=
93 94 95 98 99 100 101 102 105 106 107 108 109 112 113 114 115 116 119 120 121 123 126 127 128 129 130 133 134 135 136 137
;

set TSCOPE['echo.m'] :=
3 4 7 8 9 10 11 14 15 16 17 18 21 22 23 24 25 28 29 30 31 32 35 36 37 38 39 42 43 44 45 46 49 50 51 52 53 56 57 58 59 60 63 64 65 66 67 70 71 72
73 74
;

set TSCOPE['echo.pf'] :=
93 94 95 98 99 100 101 102 105 106 107 108 109 112 113 114 115 116 119 120 121 123 126 127 128 129 130 133 134 135 136 137
;

set TSCOPE['echo.pm'] :=
3 4 7 8 9 10 11 14 15 16 17 18 21 22 23 24 25 28 29 30 31 32 35 36 37 38 39 42 43 44 45 46 49 50 51 52 53 56 57 58 59 60 63 64 65 66 67 70 71 72
73 74
;

set TSCOPE['echo.sf'] :=
93 94 95 98 99 100 101 102 105 106 107 108 109 112 113 114 115 116 119 120 121 123 126 127 128 129 130 133 134 135 136 137
;

set TSCOPE['echo.sm'] :=
3 4 7 8 9 10 11 14 15 16 17 18 21 22 23 24 25 28 29 30 31 32 35 36 37 38 39 42 43 44 45 46 49 50 51 52 53 56 57 58 59 60 63 64 65 66 67 70 71 72
73 74
;

set TSCOPE['foxtrot.f'] :=
93 94 95 98 99 100 101 102 105 106 107 108 109 112 113 114 115 116 119 120 121 123
;

set TSCOPE['foxtrot.m'] :=
3 4 7 8 9 10 11 14 15 16 17 18 21 22 23 24 25 28 29 30 31 32 35 36 37 38 39 42 43 44 45 46 49 50 51 52 53 56 57 58 59 60 63 64 65 66 67 70 71 72
73 74 77 78 79 80 81 84 85 86 87 88 91 92
;

set TSCOPE['foxtrot.pf'] :=
93 94 95 98 99 100 101 102 105 106 107 108 109 112 113 114 115 116 119 120 121 123
;

set TSCOPE['foxtrot.pm'] :=
3 4 7 8 9 10 11 14 15 16 17 18 21 22 23 24 25 28 29 30 31 32 35 36 37 38 39 42 43 44 45 46 49 50 51 52 53 56 57 58 59 60 63 64 65 66 67 70 71 72
73 74 77 78 79 80 81 84 85 86 87 88 91 92
;

set TSCOPE['foxtrot.sf'] :=
93 94 95 98 99 100 101 102 105 106 107 108 109 112 113 114 115 116 119 120 121 123
;

set TSCOPE['foxtrot.sm'] :=
3 4 7 8 9 10 11 14 15 16 17 18 21 22 23 24 25 28 29 30 31 32 35 36 37 38 39 42 43 44 45 46 49 50 51 52 53 56 57 58 59 60 63 64 65 66 67 70 71 72
73 74 77 78 79 80 81 84 85 86 87 88 91 92
;

set TSCOPE['golf.f'] :=
134 135 136 137 140 141 142 143 144 147 148 149 150 151 154 155 156 157 158 161 162 163 164 165 168 169 170 171 172 175 176 177 178 179
;

set TSCOPE['golf.m'] :=
3 4 7 8 9 10 11 14 15 16 17 18 21 22 23 24 25 28 29 30 31 32 35 36 37 38 39 42 43 44 45 46 49 50 51 52 53 56 57 58 59 60 63 64 65 66 67 70 71 72
73 74 77 78 79 80 81 84 85 86 87 88 91 92 93 94 95 98 99 100 101 102 105 106 107 108 109 112 113 114 115 116 119 120 121 123 126 127 128 129 130 133
;

set TSCOPE['golf.pf'] :=
134 135 136 137 140 141 142 143 144 147 148 149 150 151 154 155 156 157 158 161 162 163 164 165 168 169 170 171 172 175 176 177 178 179
;

set TSCOPE['golf.pm'] :=
3 4 7 8 9 10 11 14 15 16 17 18 21 22 23 24 25 28 29 30 31 32 35 36 37 38 39 42 43 44 45 46 49 50 51 52 53 56 57 58 59 60 63 64 65 66 67 70 71 72
73 74 77 78 79 80 81 84 85 86 87 88 91 92 93 94 95 98 99 100 101 102 105 106 107 108 109 112 113 114 115 116 119 120 121 123 126 127 128 129 130 133
;

set TSCOPE['golf.sf'] :=
134 135 136 137 140 141 142 143 144 147 148 149 150 151 154 155 156 157 158 161 162 163 164 165 168 169 170 171 172 175 176 177 178 179
;

set TSCOPE['golf.sm'] :=
3 4 7 8 9 10 11 14 15 16 17 18 21 22 23 24 25 28 29 30 31 32 35 36 37 38 39 42 43 44 45 46 49 50 51 52 53 56 57 58 59 60 63 64 65 66 67 70 71 72
73 74 77 78 79 80 81 84 85 86 87 88 91 92 93 94 95 98 99 100 101 102 105 106 107 108 109 112 113 114 115 116 119 120 121 123 126 127 128 129 130 133
;

set TSCOPE['hotel.f'] :=
246 247 248 249 252 253 254 255 256 259 260 261 262 263 266 267 268 269 270 273 274 275 276 277 280 281 282 283 284 287 288 289 290 291
;

set TSCOPE['hotel.m'] :=
3 4 7 8 9 10 11 14 15 16 17 18 21 22 23 24 25 28 29 30 31 32 35 36 37 38 39 42 43 44 45 46 49 50 51 52 53 56 57 58 59 60 63 64 65 66 67 70 71 72
73 74 77 78 79 80 81 84 85 86 87 88 91 92 93 94 95 98 99 100 101 102 105 106 107 108 109 112 113 114 115 116 119 120 121 123 126 127 128 129 130 133 134 135 136 137 140 141 142 143
144 147 148 149 150 151 154 155 156 157 158 161 162 163 164 165 168 169 170 171 172 175 176 177 178 179 182 183 184 185 186 189 190 191 192 193 196 197 198 199 200 203 204 205 206 207 210 211 212 213
214 217 218 219 220 221 224 225 226 227 228 231 232 233 234 235 238 239 240 241 242 245
;

set TSCOPE['hotel.pf'] :=
246 247 248 249 252 253 254 255 256 259 260 261 262 263 266 267 268 269 270 273 274 275 276 277 280 281 282 283 284 287 288 289 290 291
;

set TSCOPE['hotel.pm'] :=
3 4 7 8 9 10 11 14 15 16 17 18 21 22 23 24 25 28 29 30 31 32 35 36 37 38 39 42 43 44 45 46 49 50 51 52 53 56 57 58 59 60 63 64 65 66 67 70 71 72
73 74 77 78 79 80 81 84 85 86 87 88 91 92 93 94 95 98 99 100 101 102 105 106 107 108 109 112 113 114 115 116 119 120 121 123 126 127 128 129 130 133 134 135 136 137 140 141 142 143
144 147 148 149 150 151 154 155 156 157 158 161 162 163 164 165 168 169 170 171 172 175 176 177 178 179 182 183 184 185 186 189 190 191 192 193 196 197 198 199 200 203 204 205 206 207 210 211 212 213
214 217 218 219 220 221 224 225 226 227 228 231 232 233 234 235 238 239 240 241 242 245
;

set TSCOPE['hotel.sf'] :=
246 247 248 249 252 253 254 255 256 259 260 261 262 263 266 267 268 269 270 273 274 275 276 277 280 281 282 283 284 287 288 289 290 291
;

set TSCOPE['hotel.sm'] :=
3 4 7 8 9 10 11 14 15 16 17 18 21 22 23 24 25 28 29 30 31 32 35 36 37 38 39 42 43 44 45 46 49 50 51 52 53 56 57 58 59 60 63 64 65 66 67 70 71 72
73 74 77 78 79 80 81 84 85 86 87 88 91 92 93 94 95 98 99 100 101 102 105 106 107 108 109 112 113 114 115 116 119 120 121 123 126 127 128 129 130 133 134 135 136 137 140 141 142 143
144 147 148 149 150 151 154 155 156 157 158 161 162 163 164 165 168 169 170 171 172 175 176 177 178 179 182 183 184 185 186 189 190 191 192 193 196 197 198 199 200 203 204 205 206 207 210 211 212 213
214 217 218 219 220 221 224 225 226 227 228 231 232 233 234 235 238 239 240 241 242 245
;

set TSCOPE['india.f'] :=
276 277 280 281 282 283 284 287 288 289 290 291 294 295 296 297 298 301 302 303 304 305
;

set TSCOPE['india.m'] :=
3 4 7 8 9 10 11 14 15 16 17 18 21 22 23 24 25 28 29 30 31 32 35 36 37 38 39 42 43 44 45 46 49 50 51 52 53 56 57 58 59 60 63 64 65 66 67 70 71 72
73 74 77 78 79 80 81 84 85 86 87 88 91 92 93 94 95 98 99 100 101 102 105 106 107 108 109 112 113 114 115 116 119 120 121 123 126 127 128 129 130 133 134 135 136 137 140 141 142 143
144 147 148 149 150 151 154 155 156 157 158 161 162 163 164 165 168 169 170 171 172 175 176 177 178 179 182 183 184 185 186 189 190 191 192 193 196 197 198 199 200 203 204 205 206 207 210 211 212 213
214 217 218 219 220 221 224 225 226 227 228 231 232 233 234 235 238 239 240 241 242 245 246 247 248 249 252 253 254 255 256 259 260 261 262 263 266 267 268 269 270 273 274 275
;

set TSCOPE['india.pf'] :=
276 277 280 281 282 283 284 287 288 289 290 291 294 295 296 297 298 301 302 303 304 305
;

set TSCOPE['india.pm'] :=
3 4 7 8 9 10 11 14 15 16 17 18 21 22 23 24 25 28 29 30 31 32 35 36 37 38 39 42 43 44 45 46 49 50 51 52 53 56 57 58 59 60 63 64 65 66 67 70 71 72
73 74 77 78 79 80 81 84 85 86 87 88 91 92 93 94 95 98 99 100 101 102 105 106 107 108 109 112 113 114 115 116 119 120 121 123 126 127 128 129 130 133 134 135 136 137 140 141 142 143
144 147 148 149 150 151 154 155 156 157 158 161 162 163 164 165 168 169 170 171 172 175 176 177 178 179 182 183 184 185 186 189 190 191 192 193 196 197 198 199 200 203 204 205 206 207 210 211 212 213
214 217 218 219 220 221 224 225 226 227 228 231 232 233 234 235 238 239 240 241 242 245 246 247 248 249 252 253 254 255 256 259 260 261 262 263 266 267 268 269 270 273 274 275
;

set TSCOPE['india.sf'] :=
276 277 280 281 282 283 284 287 288 289 290 291 294 295 296 297 298 301 302 303 304 305
;

set TSCOPE['india.sm'] :=
3 4 7 8 9 10 11 14 15 16 17 18 21 22 23 24 25 28 29 30 31 32 35 36 37 38 39 42 43 44 45 46 49 50 51 52 53 56 57 58 59 60 63 64 65 66 67 70 71 72
73 74 77 78 79 80 81 84 85 86 87 88 91 92 93 94 95 98 99 100 101 102 105 106 107 108 109 112 113 114 115 116 119 120 121 123 126 127 128 129 130 133 134 135 136 137 140 141 142 143
144 147 148 149 150 151 154 155 156 157 158 161 162 163 164 165 168 169 170 171 172 175 176 177 178 179 182 183 184 185 186 189 190 191 192 193 196 197 198 199 200 203 204 205 206 207 210 211 212 213
214 217 218 219 220 221 224 225 226 227 228 231 232 233 234 235 238 239 240 241 242 245 246 247 248 249 252 253 254 255 256 259 260 261 262 263 266 267 268 269 270 273 274 275
;

set TSCOPE['juliet.e'] :=
42 43 44 45 46 49 50 51 52 53 56 57 58 59
;

set TSCOPE['juliet.f'] :=
183 184 185 186 189 190 191 192 193 196 197 198 199 200 203 204 205 206 207 210 211 212 213 214 217 218 219 220 221 224 225 226 227 228
;

set TSCOPE['juliet.m'] :=
60 63 64 65 66 67 70 71 72 73 74 77 78 79 80 81 84 85 86 87 88 91 92 93 94 95 98 99 100 101 102 105 106 107 108 109 112 113 114 115 116 119 120 121 123 126 127 128 129 130
133 134 135 136 137 140 141 142 143 144 147 148 149 150 151 154 155 156 157 158 161 162 163 164 165 168 169 170 171 172 175 176 177 178 179 182
;

set TSCOPE['juliet.pe'] :=
42 43 44 45 46 49 50 51 52 53 56 57 58 59
;

set TSCOPE['juliet.pf'] :=
183 184 185 186 189 190 191 192 193 196 197 198 199 200 203 204 205 206 207 210 211 212 213 214 217 218 219 220 221 224 225 226 227 228
;

set TSCOPE['juliet.pm'] :=
60 63 64 65 66 67 70 71 72 73 74 77 78 79 80 81 84 85 86 87 88 91 92 93 94 95 98 99 100 101 102 105 106 107 108 109 112 113 114 115 116 119 120 121 123 126 127 128 129 130
133 134 135 136 137 140 141 142 143 144 147 148 149 150 151 154 155 156 157 158 161 162 163 164 165 168 169 170 171 172 175 176 177 178 179 182
;

set TSCOPE['juliet.se'] :=
42 43 44 45 46 49 50 51 52 53 56 57 58 59
;

set TSCOPE['juliet.sf'] :=
183 184 185 186 189 190 191 192 193 196 197 198 199 200 203 204 205 206 207 210 211 212 213 214 217 218 219 220 221 224 225 226 227 228
;

set TSCOPE['juliet.sm'] :=
60 63 64 65 66 67 70 71 72 73 74 77 78 79 80 81 84 85 86 87 88 91 92 93 94 95 98 99 100 101 102 105 106 107 108 109 112 113 114 115 116 119 120 121 123 126 127 128 129 130
133 134 135 136 137 140 141 142 143 144 147 148 149 150 151 154 155 156 157 158 161 162 163 164 165 168 169 170 171 172 175 176 177 178 179 182
;

set TSCOPE['kilo.e'] :=
63 64 65 66 67 70 71 72 73 74 77 78 79 80 81 84
;

set TSCOPE['kilo.f'] :=
217 218 219 220 221 224 225 226 227 228 231 232 233 234 235 238 239 240 241 242 245 246 247 248 249 252 253 254 255 256 259 260
;

set TSCOPE['kilo.m'] :=
85 86 87 88 91 92 93 94 95 98 99 100 101 102 105 106 107 108 109 112 113 114 115 116 119 120 121 123 126 127 128 129 130 133 134 135 136 137 140 141 142 143 144 147 148 149 150 151 154 155
156 157 158 161 162 163 164 165 168 169 170 171 172 175 176 177 178 179 182 183 184 185 186 189 190 191 192 193 196 197 198 199 200 203 204 205 206 207 210 211 212 213 214
;

set TSCOPE['kilo.pe'] :=
63 64 65 66 67 70 71 72 73 74 77 78 79 80 81 84
;

set TSCOPE['kilo.pf'] :=
217 218 219 220 221 224 225 226 227 228 231 232 233 234 235 238 239 240 241 242 245 246 247 248 249 252 253 254 255 256 259 260
;

set TSCOPE['kilo.pm'] :=
85 86 87 88 91 92 93 94 95 98 99 100 101 102 105 106 107 108 109 112 113 114 115 116 119 120 121 123 126 127 128 129 130 133 134 135 136 137 140 141 142 143 144 147 148 149 150 151 154 155
156 157 158 161 162 163 164 165 168 169 170 171 172 175 176 177 178 179 182 183 184 185 186 189 190 191 192 193 196 197 198 199 200 203 204 205 206 207 210 211 212 213 214
;

set TSCOPE['kilo.se'] :=
63 64 65 66 67 70 71 72 73 74 77 78 79 80 81 84
;

set TSCOPE['kilo.sf'] :=
217 218 219 220 221 224 225 226 227 228 231 232 233 234 235 238 239 240 241 242 245 246 247 248 249 252 253 254 255 256 259 260
;

set TSCOPE['kilo.sm'] :=
85 86 87 88 91 92 93 94 95 98 99 100 101 102 105 106 107 108 109 112 113 114 115 116 119 120 121 123 126 127 128 129 130 133 134 135 136 137 140 141 142 143 144 147 148 149 150 151 154 155
156 157 158 161 162 163 164 165 168 169 170 171 172 175 176 177 178 179 182 183 184 185 186 189 190 191 192 193 196 197 198 199 200 203 204 205 206 207 210 211 212 213 214
;

set TSCOPE['lima.e'] :=
81 84 85 86 87 88 91 92 93 94 95 98 99 100 101 102 105 106 107 108 109
;

set TSCOPE['lima.f'] :=
308 309 310 311 312 315 316 317 318 319 322 323 324 325 326 329 330 331 332 333
;

set TSCOPE['lima.m'] :=
112 113 114 115 116 119 120 121 123 126 127 128 129 130 133 134 135 136 137 140 141 142 143 144 147 148 149 150 151 154 155 156 157 158 161 162 163 164 165 168 169 170 171 172 175 176 177 178 179 182
183 184 185 186 189 190 191 192 193 196 197 198 199 200 203 204 205 206 207 210 211 212 213 214 217 218 219 220 221 224 225 226 227 228 231 232 233 234 235 238 239 240 241 242 245 246 247 248 249 252
253 254 255 256 259 260 261 262 263 266 267 268 269 270 273 274 275 276 277 280 281 282 283 284 287 288 289 290 291 294 295 296 297 298 301 302 303 304 305
;

set TSCOPE['lima.pe'] :=
81 84 85 86 87 88 91 92 93 94 95 98 99 100 101 102 105 106 107 108 109
;

set TSCOPE['lima.pf'] :=
308 309 310 311 312 315 316 317 318 319 322 323 324 325 326 329 330 331 332 333
;

set TSCOPE['lima.pm'] :=
112 113 114 115 116 119 120 121 123 126 127 128 129 130 133 134 135 136 137 140 141 142 143 144 147 148 149 150 151 154 155 156 157 158 161 162 163 164 165 168 169 170 171 172 175 176 177 178 179 182
183 184 185 186 189 190 191 192 193 196 197 198 199 200 203 204 205 206 207 210 211 212 213 214 217 218 219 220 221 224 225 226 227 228 231 232 233 234 235 238 239 240 241 242 245 246 247 248 249 252
253 254 255 256 259 260 261 262 263 266 267 268 269 270 273 274 275 276 277 280 281 282 283 284 287 288 289 290 291 294 295 296 297 298 301 302 303 304 305
;

set TSCOPE['lima.se'] :=
81 84 85 86 87 88 91 92 93 94 95 98 99 100 101 102 105 106 107 108 109
;

set TSCOPE['lima.sf'] :=
308 309 310 311 312 315 316 317 318 319 322 323 324 325 326 329 330 331 332 333
;

set TSCOPE['lima.sm'] :=
112 113 114 115 116 119 120 121 123 126 127 128 129 130 133 134 135 136 137 140 141 142 143 144 147 148 149 150 151 154 155 156 157 158 161 162 163 164 165 168 169 170 171 172 175 176 177 178 179 182
183 184 185 186 189 190 191 192 193 196 197 198 199 200 203 204 205 206 207 210 211 212 213 214 217 218 219 220 221 224 225 226 227 228 231 232 233 234 235 238 239 240 241 242 245 246 247 248 249 252
253 254 255 256 259 260 261 262 263 266 267 268 269 270 273 274 275 276 277 280 281 282 283 284 287 288 289 290 291 294 295 296 297 298 301 302 303 304 305
;

set TSCOPE['mike.e'] :=
101 102 105 106 107 108 109
;

set TSCOPE['mike.f'] :=
270 273 274 275 276 277 280 281 282 283 284 287 288 289 290 291 294 295 296 297 298 301 302 303 304
;

set TSCOPE['mike.m'] :=
116 119 120 121 123 126 127 128 129 130 133 134 135 136 137 140 141 142 143 144 147 148 149 150 151 154 155 156 157 158 161 162 163 164 165 168 169 170 171 172 175 176 177 178 179 182 183 184 185 186
189 190 191 192 193 196 197 198 199 200 203 204 205 206 207 210 211 212 213 214 217 218 219 220 221 224 225 226 227 228 231 232 233 234 235 238 239 240 241 242 245 246 247 248 249 252 253 254 255 256
259 260 261 262 263 266 267 268 269
;

set TSCOPE['mike.pe'] :=
101 102 105 106 107 108 109
;

set TSCOPE['mike.pf'] :=
270 273 274 275 276 277 280 281 282 283 284 287 288 289 290 291 294 295 296 297 298 301 302 303 304
;

set TSCOPE['mike.pm'] :=
112 113 114 115 116 119 120 121 123 126 127 128 129 130 133 134 135 136 137 140 141 142 143 144 147 148 149 150 151 154 155 156 157 158 161 162 163 164 165 168 169 170 171 172 175 176 177 178 179 182
183 184 185 186 189 190 191 192 193 196 197 198 199 200 203 204 205 206 207 210 211 212 213 214 217 218 219 220 221 224 225 226 227 228 231 232 233 234 235 238 239 240 241 242 245 246 247 248 249 252
253 254 255 256 259 260 261 262 263 266 267 268 269
;

set TSCOPE['mike.se'] :=
101 102 105 106 107 108 109
;

set TSCOPE['mike.sf'] :=
270 273 274 275 276 277 280 281 282 283 284 287 288 289 290 291 294 295 296 297 298 301 302 303 304
;

set TSCOPE['mike.sm'] :=
112 113 114 115 116 119 120 121 123 126 127 128 129 130 133 134 135 136 137 140 141 142 143 144 147 148 149 150 151 154 155 156 157 158 161 162 163 164 165 168 169 170 171 172 175 176 177 178 179 182
183 184 185 186 189 190 191 192 193 196 197 198 199 200 203 204 205 206 207 210 211 212 213 214 217 218 219 220 221 224 225 226 227 228 231 232 233 234 235 238 239 240 241 242 245 246 247 248 249 252
253 254 255 256 259 260 261 262 263 266 267 268 269
;

set TSCOPE['november.e'] :=
147 148 149 150 151 154 155 156 157 158 161 162 163 164 165
;

set TSCOPE['november.f'] :=
366 367 368 371 372 373 374 375 378 379 380 381 382 385 386 387 388 389 392 393 394 395 396
;

set TSCOPE['november.m'] :=
168 169 170 171 172 175 176 177 178 179 182 183 184 185 186 189 190 191 192 193 196 197 198 199 200 203 204 205 206 207 210 211 212 213 214 217 218 219 220 221 224 225 226 227 228 231 232 233 234 235
238 239 240 241 242 245 246 247 248 249 252 253 254 255 256 259 260 261 262 263 266 267 268 269 270 273 274 275 276 277 280 281 282 283 284 287 288 289 290 291 294 295 296 297 298 301 302 303 304 305
308 309 310 311 312 315 316 317 318 319 322 323 324 325 326 329 330 331 332 333 336 337 338 339 340 343 344 345 346 347 350 351 352 353 354 357 358 359 360 361 364 365
;

set TSCOPE['november.pe'] :=
147 148 149 150 151 154 155 156 157 158 161 162 163 164 165
;

set TSCOPE['november.pf'] :=
366 367 368 371 372 373 374 375 378 379 380 381 382 385 386 387 388 389 392 393 394 395 396
;

set TSCOPE['november.pm'] :=
168 169 170 171 172 175 176 177 178 179 182 183 184 185 186 189 190 191 192 193 196 197 198 199 200 203 204 205 206 207 210 211 212 213 214 217 218 219 220 221 224 225 226 227 228 231 232 233 234 235
238 239 240 241 242 245 246 247 248 249 252 253 254 255 256 259 260 261 262 263 266 267 268 269 270 273 274 275 276 277 280 281 282 283 284 287 288 289 290 291 294 295 296 297 298 301 302 303 304 305
308 309 310 311 312 315 316 317 318 319 322 323 324 325 326 329 330 331 332 333 336 337 338 339 340 343 344 345 346 347 350 351 352 353 354 357 358 359 360 361 364 365
;

set TSCOPE['november.se'] :=
147 148 149 150 151 154 155 156 157 158 161 162 163 164 165
;

set TSCOPE['november.sf'] :=
366 367 368 371 372 373 374 375 378 379 380 381 382 385 386 387 388 389 392 393 394 395 396
;

set TSCOPE['november.sm'] :=
168 169 170 171 172 175 176 177 178 179 182 183 184 185 186 189 190 191 192 193 196 197 198 199 200 203 204 205 206 207 210 211 212 213 214 217 218 219 220 221 224 225 226 227 228 231 232 233 234 235
238 239 240 241 242 245 246 247 248 249 252 253 254 255 256 259 260 261 262 263 266 267 268 269 270 273 274 275 276 277 280 281 282 283 284 287 288 289 290 291 294 295 296 297 298 301 302 303 304 305
308 309 310 311 312 315 316 317 318 319 322 323 324 325 326 329 330 331 332 333 336 337 338 339 340 343 344 345 346 347 350 351 352 353 354 357 358 359 360 361 364 365
;

set TSCOPE['oscar.e'] :=
177 178 179 182 183 184 185 186 189 190 191
;

set TSCOPE['oscar.f'] :=
366 367 368 371 372 373 374 375 378 379 380 381 382 385 386 387 388 389 392 393 394 395 396
;

set TSCOPE['oscar.m'] :=
192 193 196 197 198 199 200 203 204 205 206 207 210 211 212 213 214 217 218 219 220 221 224 225 226 227 228 231 232 233 234 235 238 239 240 241 242 245 246 247 248 249 252 253 254 255 256 259 260 261
262 263 266 267 268 269 270 273 274 275 276 277 280 281 282 283 284 287 288 289 290 291 294 295 296 297 298 301 302 303 304 305 308 309 310 311 312 315 316 317 318 319 322 323 324 325 326 329 330 331
332 333 336 337 338 339 340 343 344 345 346 347 350 351 352 353 354 357 358 359 360 361 364 365
;

set TSCOPE['oscar.pe'] :=
177 178 179 182 183 184 185 186 189 190 191
;

set TSCOPE['oscar.pf'] :=
366 367 368 371 372 373 374 375 378 379 380 381 382 385 386 387 388 389 392 393 394 395 396
;

set TSCOPE['oscar.pm'] :=
192 193 196 197 198 199 200 203 204 205 206 207 210 211 212 213 214 217 218 219 220 221 224 225 226 227 228 231 232 233 234 235 238 239 240 241 242 245 246 247 248 249 252 253 254 255 256 259 260 261
262 263 266 267 268 269 270 273 274 275 276 277 280 281 282 283 284 287 288 289 290 291 294 295 296 297 298 301 302 303 304 305 308 309 310 311 312 315 316 317 318 319 322 323 324 325 326 329 330 331
332 333 336 337 338 339 340 343 344 345 346 347 350 351 352 353 354 357 358 359 360 361 364 365
;

set TSCOPE['oscar.se'] :=
177 178 179 182 183 184 185 186 189 190 191
;

set TSCOPE['oscar.sf'] :=
366 367 368 371 372 373 374 375 378 379 380 381 382 385 386 387 388 389 392 393 394 395 396
;

set TSCOPE['oscar.sm'] :=
192 193 196 197 198 199 200 203 204 205 206 207 210 211 212 213 214 217 218 219 220 221 224 225 226 227 228 231 232 233 234 235 238 239 240 241 242 245 246 247 248 249 252 253 254 255 256 259 260 261
262 263 266 267 268 269 270 273 274 275 276 277 280 281 282 283 284 287 288 289 290 291 294 295 296 297 298 301 302 303 304 305 308 309 310 311 312 315 316 317 318 319 322 323 324 325 326 329 330 331
332 333 336 337 338 339 340 343 344 345 346 347 350 351 352 353 354 357 358 359 360 361 364 365
;

set ENAME :=
'DEV.Carl'
'DEV.Charles'
'DEV.Frances'
'DEV.Francis'
'DEV.Hugo'
'DEV.Lars'
'DEV.Martin'
'DEV.Michael'
'DEV.Paul'
'DEV.Tom'
'PM.Angel'
'PM.Daniel'
'PM.Lisa'
'SA.Adrian'
'SA.Robert';

set ASSIGN :=
('DEV.Carl',*)
'beta.sf'
'beta.sm'
'charlie.f'
'charlie.m'
'juliet.e'
'juliet.f'
'juliet.m'
'november.e'
'november.f'
'november.m'
('DEV.Charles',*)
'charlie.f'
'charlie.m'
'india.f'
'india.m'
'india.sf'
'india.sm'
'juliet.se'
'juliet.sf'
'juliet.sm'
('DEV.Frances',*)
'beta.f'
'beta.m'
'lima.f'
'lima.m'
'mike.se'
'mike.sf'
'mike.sm'
'november.se'
'november.sf'
'november.sm'
('DEV.Francis',*)
'charlie.f'
'charlie.m'
'hotel.f'
'hotel.m'
'kilo.f'
'kilo.m'
('DEV.Hugo',*)
'alpha.f'
'alpha.m'
'delta.sf'
'delta.sm'
'golf.f'
'golf.m'
'juliet.f'
'juliet.m'
'november.f'
'november.m'
('DEV.Lars',*)
'delta.f'
'delta.m'
'india.f'
'india.m'
('DEV.Martin',*)
'echo.f'
'echo.m'
'hotel.f'
'hotel.m'
'kilo.e'
'kilo.f'
'kilo.m'
'mike.e'
'mike.f'
'mike.m'
('DEV.Michael',*)
'alpha.sf'
'alpha.sm'
'foxtrot.f'
'foxtrot.m'
'hotel.f'
'hotel.m'
'lima.f'
'lima.m'
'mike.f'
'mike.m'
('DEV.Paul',*)
'alpha.f'
'alpha.m'
'charlie.f'
'charlie.m'
'india.f'
'india.m'
'kilo.se'
'kilo.sf'
'kilo.sm'
'lima.e'
'lima.f'
'lima.m'
'oscar.se'
'oscar.sf'
'oscar.sm'
('DEV.Tom',*)
'beta.f'
'beta.m'
'india.f'
'india.m'
'lima.se'
'lima.sf'
'lima.sm'
'oscar.f'
'oscar.m'
('PM.Angel',*)
'charlie.pf'
'charlie.pm'
'delta.pf'
'delta.pm'
'juliet.pe'
'juliet.pf'
'juliet.pm'
'mike.pe'
'mike.pf'
'mike.pm'
'november.pe'
'november.pf'
'november.pm'
('PM.Daniel',*)
'alpha.pf'
'alpha.pm'
'beta.pf'
'beta.pm'
'india.pf'
'india.pm'
'oscar.pe'
'oscar.pf'
'oscar.pm'
('PM.Lisa',*)
'echo.pf'
'echo.pm'
'foxtrot.pf'
'foxtrot.pm'
'golf.pf'
'golf.pm'
'hotel.pf'
'hotel.pm'
'kilo.pe'
'kilo.pf'
'kilo.pm'
'lima.pe'
'lima.pf'
'lima.pm'
('SA.Adrian',*)
'alpha.f'
'alpha.m'
'charlie.sf'
'charlie.sm'
'echo.sf'
'echo.sm'
'golf.f'
'golf.m'
'lima.f'
'lima.m'
('SA.Robert',*)
'beta.f'
'beta.m'
'foxtrot.sf'
'foxtrot.sm'
'golf.sf'
'golf.sm'
'hotel.sf'
'hotel.sm'
'india.f'
'india.m'
'oscar.e'
'oscar.f'
'oscar.m';

param:
XBID: XBEXPERT XBTASK XBS XBE XBL XBU :=
1 'DEV.Carl' 'beta.sf' 173 218 0 12
2 'DEV.Carl' 'beta.sm' 2 172 0 12
3 'DEV.Charles' 'india.sf' 276 306 0 12
4 'DEV.Charles' 'india.sm' 2 275 0 12
5 'DEV.Charles' 'juliet.se' 42 59 0 12
6 'DEV.Charles' 'juliet.sf' 183 228 0 12
7 'DEV.Charles' 'juliet.sm' 60 182 0 12
8 'DEV.Frances' 'mike.se' 101 111 0 12
9 'DEV.Frances' 'mike.sf' 270 304 0 12
10 'DEV.Frances' 'mike.sm' 112 269 0 12
11 'DEV.Frances' 'november.se' 147 166 0 12
12 'DEV.Frances' 'november.sf' 366 397 0 12
13 'DEV.Frances' 'november.sm' 167 365 0 12
14 'DEV.Hugo' 'delta.sf' 58 103 0 12
15 'DEV.Hugo' 'delta.sm' 2 57 0 12
16 'DEV.Michael' 'alpha.sf' 93 123 0 12
17 'DEV.Michael' 'alpha.sm' 2 92 0 12
18 'DEV.Paul' 'kilo.se' 61 84 0 12
19 'DEV.Paul' 'kilo.sf' 215 260 0 12
20 'DEV.Paul' 'kilo.sm' 85 214 0 12
21 'DEV.Paul' 'oscar.se' 177 191 0 12
22 'DEV.Paul' 'oscar.sf' 366 397 0 12
23 'DEV.Paul' 'oscar.sm' 192 365 0 12
24 'DEV.Tom' 'lima.se' 81 110 0 12
25 'DEV.Tom' 'lima.sf' 307 335 0 12
26 'DEV.Tom' 'lima.sm' 111 306 0 12
27 'PM.Angel' 'charlie.pf' 158 188 0 12
28 'PM.Angel' 'charlie.pm' 2 157 0 12
29 'PM.Angel' 'delta.pf' 58 103 0 8
30 'PM.Angel' 'delta.pm' 2 57 0 8
31 'PM.Angel' 'juliet.pe' 42 59 0 8
32 'PM.Angel' 'juliet.pf' 183 228 0 8
33 'PM.Angel' 'juliet.pm' 60 182 0 8
34 'PM.Angel' 'mike.pe' 101 111 0 8
35 'PM.Angel' 'mike.pf' 270 304 0 8
36 'PM.Angel' 'mike.pm' 112 269 0 8
37 'PM.Angel' 'november.pe' 147 166 0 8
38 'PM.Angel' 'november.pf' 366 397 0 8
39 'PM.Angel' 'november.pm' 167 365 0 8
40 'PM.Daniel' 'alpha.pf' 93 123 0 8
41 'PM.Daniel' 'alpha.pm' 2 92 0 8
42 'PM.Daniel' 'beta.pf' 173 218 0 8
43 'PM.Daniel' 'beta.pm' 2 172 0 8
44 'PM.Daniel' 'india.pf' 276 306 0 12
45 'PM.Daniel' 'india.pm' 2 275 0 12
46 'PM.Daniel' 'oscar.pe' 177 191 0 12
47 'PM.Daniel' 'oscar.pf' 366 397 0 12
48 'PM.Daniel' 'oscar.pm' 192 365 0 12
49 'PM.Lisa' 'echo.pf' 93 138 0 8
50 'PM.Lisa' 'echo.pm' 2 75 0 8
51 'PM.Lisa' 'foxtrot.pf' 93 123 0 8
52 'PM.Lisa' 'foxtrot.pm' 2 92 0 8
53 'PM.Lisa' 'golf.pf' 134 179 0 8
54 'PM.Lisa' 'golf.pm' 2 133 0 8
55 'PM.Lisa' 'hotel.pf' 246 291 0 12
56 'PM.Lisa' 'hotel.pm' 2 245 0 12
57 'PM.Lisa' 'kilo.pe' 61 84 0 8
58 'PM.Lisa' 'kilo.pf' 215 260 0 8
59 'PM.Lisa' 'kilo.pm' 85 214 0 8
60 'PM.Lisa' 'lima.pe' 81 110 0 12
61 'PM.Lisa' 'lima.pf' 307 335 0 12
62 'PM.Lisa' 'lima.pm' 111 306 0 12
63 'SA.Adrian' 'charlie.sf' 158 188 0 12
64 'SA.Adrian' 'charlie.sm' 2 157 0 12
65 'SA.Adrian' 'echo.sf' 93 138 0 12
66 'SA.Adrian' 'echo.sm' 2 75 0 12
67 'SA.Robert' 'foxtrot.sf' 93 123 0 12
68 'SA.Robert' 'foxtrot.sm' 2 92 0 12
69 'SA.Robert' 'golf.sf' 134 179 0 12
70 'SA.Robert' 'golf.sm' 2 133 0 12
71 'SA.Robert' 'hotel.sf' 246 291 0 12
72 'SA.Robert' 'hotel.sm' 2 245 0 12;

param:
EBID: EBEXPERT EBS EBE EBL EBU :=
;

param:
PNAME: PERS PERE :=
'Jan.25' 1 16
'Feb.25' 17 45
'Mar.25' 46 76
'Apr.25' 77 105
'May.25' 106 139
'Jun.25' 140 170
'Jul.25' 171 199
'Aug.25' 200 230
'Sep.25' 231 259
'Oct.25' 260 289
'Nov.25' 290 317
'Dec.25' 318 346;

param:
EXPPER: PBL PBU :=
['DEV.Carl',*]
'Apr.25' 0 720
'Aug.25' 0 720
'Dec.25' 0 720
'Feb.25' 0 720
'Jan.25' 0 720
'Jul.25' 0 720
'Jun.25' 0 720
'Mar.25' 0 720
'May.25' 0 720
'Nov.25' 0 720
'Oct.25' 0 720
'Sep.25' 0 720
['DEV.Charles',*]
'Apr.25' 0 720
'Aug.25' 0 720
'Dec.25' 0 720
'Feb.25' 0 720
'Jan.25' 0 720
'Jul.25' 0 720
'Jun.25' 0 720
'Mar.25' 0 720
'May.25' 0 720
'Nov.25' 0 720
'Oct.25' 0 720
'Sep.25' 0 720
['DEV.Frances',*]
'Apr.25' 0 720
'Aug.25' 0 720
'Dec.25' 0 720
'Feb.25' 0 720
'Jan.25' 0 720
'Jul.25' 0 720
'Jun.25' 0 720
'Mar.25' 0 720
'May.25' 0 720
'Nov.25' 0 720
'Oct.25' 0 720
'Sep.25' 0 720
['DEV.Francis',*]
'Apr.25' 0 720
'Aug.25' 0 720
'Dec.25' 0 720
'Feb.25' 0 720
'Jan.25' 0 720
'Jul.25' 0 720
'Jun.25' 0 720
'Mar.25' 0 720
'May.25' 0 720
'Nov.25' 0 720
'Oct.25' 0 720
'Sep.25' 0 720
['DEV.Hugo',*]
'Apr.25' 0 720
'Aug.25' 0 720
'Dec.25' 0 720
'Feb.25' 0 720
'Jan.25' 0 720
'Jul.25' 0 720
'Jun.25' 0 720
'Mar.25' 0 720
'May.25' 0 720
'Nov.25' 0 720
'Oct.25' 0 720
'Sep.25' 0 720
['DEV.Lars',*]
'Apr.25' 0 720
'Aug.25' 0 720
'Dec.25' 0 720
'Feb.25' 0 720
'Jan.25' 0 720
'Jul.25' 0 720
'Jun.25' 0 720
'Mar.25' 0 720
'May.25' 0 720
'Nov.25' 0 720
'Oct.25' 0 720
'Sep.25' 0 720
['DEV.Martin',*]
'Apr.25' 0 720
'Aug.25' 0 720
'Dec.25' 0 720
'Feb.25' 0 720
'Jan.25' 0 720
'Jul.25' 0 720
'Jun.25' 0 720
'Mar.25' 0 720
'May.25' 0 720
'Nov.25' 0 720
'Oct.25' 0 720
'Sep.25' 0 720
['DEV.Michael',*]
'Apr.25' 0 720
'Aug.25' 0 720
'Dec.25' 0 720
'Feb.25' 0 720
'Jan.25' 0 720
'Jul.25' 0 720
'Jun.25' 0 720
'Mar.25' 0 720
'May.25' 0 720
'Nov.25' 0 720
'Oct.25' 0 720
'Sep.25' 0 720
['DEV.Paul',*]
'Apr.25' 0 720
'Aug.25' 0 720
'Dec.25' 0 720
'Feb.25' 0 720
'Jan.25' 0 720
'Jul.25' 0 720
'Jun.25' 0 720
'Mar.25' 0 720
'May.25' 0 720
'Nov.25' 0 720
'Oct.25' 0 720
'Sep.25' 0 720
['DEV.Tom',*]
'Apr.25' 0 720
'Aug.25' 0 720
'Dec.25' 0 720
'Feb.25' 0 720
'Jan.25' 0 720
'Jul.25' 0 720
'Jun.25' 0 720
'Mar.25' 0 720
'May.25' 0 720
'Nov.25' 0 720
'Oct.25' 0 720
'Sep.25' 0 720
['PM.Angel',*]
'Apr.25' 0 720
'Aug.25' 0 720
'Dec.25' 0 720
'Feb.25' 0 720
'Jan.25' 0 720
'Jul.25' 0 720
'Jun.25' 0 720
'Mar.25' 0 720
'May.25' 0 720
'Nov.25' 0 720
'Oct.25' 0 720
'Sep.25' 0 720
['PM.Daniel',*]
'Apr.25' 0 720
'Aug.25' 0 720
'Dec.25' 0 720
'Feb.25' 0 720
'Jan.25' 0 720
'Jul.25' 0 720
'Jun.25' 0 720
'Mar.25' 0 720
'May.25' 0 720
'Nov.25' 0 720
'Oct.25' 0 720
'Sep.25' 0 720
['PM.Lisa',*]
'Apr.25' 0 720
'Aug.25' 0 720
'Dec.25' 0 720
'Feb.25' 0 720
'Jan.25' 0 720
'Jul.25' 0 720
'Jun.25' 0 720
'Mar.25' 0 720
'May.25' 0 720
'Nov.25' 0 720
'Oct.25' 0 720
'Sep.25' 0 720
['SA.Adrian',*]
'Apr.25' 0 720
'Aug.25' 0 720
'Dec.25' 0 720
'Feb.25' 0 720
'Jan.25' 0 720
'Jul.25' 0 720
'Jun.25' 0 720
'Mar.25' 0 720
'May.25' 0 720
'Nov.25' 0 720
'Oct.25' 0 720
'Sep.25' 0 720
['SA.Robert',*]
'Apr.25' 0 720
'Aug.25' 0 720
'Dec.25' 0 720
'Feb.25' 0 720
'Jan.25' 0 720
'Jul.25' 0 720
'Jun.25' 0 720
'Mar.25' 0 720
'May.25' 0 720
'Nov.25' 0 720
'Oct.25' 0 720
'Sep.25' 0 720;

